p cnf 959 2461
51 -2 -693 0
-51 2 0
-51 693 0
52 -51 -3 0
-52 51 0
-52 3 0
53 -4 -694 0
-53 4 0
-53 694 0
54 -53 -5 0
-54 53 0
-54 5 0
55 -695 -696 0
-55 695 0
-55 696 0
56 -697 -698 0
-56 697 0
-56 698 0
57 -56 -699 0
-57 56 0
-57 699 0
58 -700 -55 0
-58 700 0
-58 55 0
59 -701 -9 0
-59 701 0
-59 9 0
60 -59 -11 0
-60 59 0
-60 11 0
61 -702 -58 0
-61 702 0
-61 58 0
62 -13 -12 0
-62 13 0
-62 12 0
63 -62 -14 0
-63 62 0
-63 14 0
64 -703 -61 0
-64 703 0
-64 61 0
65 -15 -704 0
-65 15 0
-65 704 0
66 -65 -705 0
-66 65 0
-66 705 0
67 -706 -64 0
-67 706 0
-67 64 0
68 -707 -17 0
-68 707 0
-68 17 0
69 -68 -19 0
-69 68 0
-69 19 0
70 -708 -67 0
-70 708 0
-70 67 0
71 -21 -709 0
-71 21 0
-71 709 0
72 -71 -710 0
-72 71 0
-72 710 0
73 -711 -70 0
-73 711 0
-73 70 0
74 -712 -698 0
-74 712 0
-74 698 0
75 -74 -713 0
-75 74 0
-75 713 0
76 -714 -73 0
-76 714 0
-76 73 0
77 -25 -13 0
-77 25 0
-77 13 0
78 -77 -26 0
-78 77 0
-78 26 0
79 -715 -76 0
-79 715 0
-79 76 0
80 -27 -716 0
-80 27 0
-80 716 0
81 -80 -28 0
-81 80 0
-81 28 0
82 -717 -79 0
-82 717 0
-82 79 0
83 -718 -719 0
-83 718 0
-83 719 0
84 -83 -27 0
-84 83 0
-84 27 0
85 -720 -82 0
-85 720 0
-85 82 0
86 -721 -709 0
-86 721 0
-86 709 0
87 -86 -7 0
-87 86 0
-87 7 0
88 -722 -85 0
-88 722 0
-88 85 0
89 -723 -704 0
-89 723 0
-89 704 0
90 -89 -25 0
-90 89 0
-90 25 0
91 -724 -88 0
-91 724 0
-91 88 0
92 -725 -1 0
-92 725 0
-92 1 0
93 -92 -726 0
-93 92 0
-93 726 0
94 -727 -91 0
-94 727 0
-94 91 0
95 -32 -4 0
-95 32 0
-95 4 0
96 -95 -33 0
-96 95 0
-96 33 0
97 -728 -94 0
-97 728 0
-97 94 0
98 -723 -12 0
-98 723 0
-98 12 0
99 -98 -729 0
-99 98 0
-99 729 0
100 -730 -97 0
-100 730 0
-100 97 0
101 -18 -698 0
-101 18 0
-101 698 0
102 -101 -14 0
-102 101 0
-102 14 0
103 -731 -100 0
-103 731 0
-103 100 0
104 -732 -34 0
-104 732 0
-104 34 0
105 -104 -699 0
-105 104 0
-105 699 0
106 -733 -103 0
-106 733 0
-106 103 0
107 -36 -723 0
-107 36 0
-107 723 0
108 -107 -734 0
-108 107 0
-108 734 0
109 -735 -106 0
-109 735 0
-109 106 0
110 -736 -17 0
-110 736 0
-110 17 0
111 -110 -710 0
-111 110 0
-111 710 0
112 -737 -109 0
-112 737 0
-112 109 0
113 -19 -704 0
-113 19 0
-113 704 0
114 -113 -37 0
-114 113 0
-114 37 0
115 -738 -112 0
-115 738 0
-115 112 0
116 -39 -693 0
-116 39 0
-116 693 0
117 -116 -739 0
-117 116 0
-117 739 0
118 -740 -115 0
-118 740 0
-118 115 0
119 -42 -741 0
-119 42 0
-119 741 0
120 -119 -7 0
-120 119 0
-120 7 0
121 -742 -118 0
-121 742 0
-121 118 0
122 -36 -10 0
-122 36 0
-122 10 0
123 -122 -31 0
-123 122 0
-123 31 0
124 -743 -121 0
-124 743 0
-124 121 0
125 -21 -694 0
-125 21 0
-125 694 0
126 -125 -7 0
-126 125 0
-126 7 0
127 -744 -124 0
-127 744 0
-127 124 0
128 -745 -746 0
-128 745 0
-128 746 0
129 -128 -729 0
-129 128 0
-129 729 0
130 -747 -127 0
-130 747 0
-130 127 0
131 -29 -693 0
-131 29 0
-131 693 0
132 -131 -11 0
-132 131 0
-132 11 0
133 -748 -130 0
-133 748 0
-133 130 0
134 -749 -18 0
-134 749 0
-134 18 0
135 -134 -28 0
-135 134 0
-135 28 0
136 -750 -133 0
-136 750 0
-136 133 0
137 -18 -705 0
-137 18 0
-137 705 0
138 -137 -33 0
-138 137 0
-138 33 0
139 -751 -136 0
-139 751 0
-139 136 0
140 -44 -6 0
-140 44 0
-140 6 0
141 -140 -752 0
-141 140 0
-141 752 0
142 -753 -139 0
-142 753 0
-142 139 0
143 -739 -25 0
-143 739 0
-143 25 0
144 -143 -726 0
-144 143 0
-144 726 0
145 -754 -142 0
-145 754 0
-145 142 0
146 -736 -29 0
-146 736 0
-146 29 0
147 -146 -734 0
-147 146 0
-147 734 0
148 -755 -145 0
-148 755 0
-148 145 0
149 -44 -30 0
-149 44 0
-149 30 0
150 -149 -734 0
-150 149 0
-150 734 0
151 -756 -148 0
-151 756 0
-151 148 0
152 -739 -721 0
-152 739 0
-152 721 0
153 -152 -11 0
-153 152 0
-153 11 0
154 -757 -151 0
-154 757 0
-154 151 0
155 -716 -5 0
-155 716 0
-155 5 0
156 -155 -726 0
-156 155 0
-156 726 0
157 -758 -154 0
-157 758 0
-157 154 0
158 -759 -4 0
-158 759 0
-158 4 0
159 -158 -7 0
-159 158 0
-159 7 0
160 -760 -157 0
-160 760 0
-160 157 0
161 -28 -18 0
-161 28 0
-161 18 0
162 -161 -699 0
-162 161 0
-162 699 0
163 -761 -160 0
-163 761 0
-163 160 0
164 -762 -30 0
-164 762 0
-164 30 0
165 -164 -47 0
-165 164 0
-165 47 0
166 -763 -163 0
-166 763 0
-166 163 0
167 -5 -2 0
-167 5 0
-167 2 0
168 -167 -26 0
-168 167 0
-168 26 0
169 -764 -166 0
-169 764 0
-169 166 0
170 -113 -48 0
-170 113 0
-170 48 0
171 -765 -169 0
-171 765 0
-171 169 0
172 -17 -766 0
-172 17 0
-172 766 0
173 -172 -37 0
-173 172 0
-173 37 0
174 -767 -171 0
-174 767 0
-174 171 0
175 -15 -6 0
-175 15 0
-175 6 0
176 -175 -9 0
-176 175 0
-176 9 0
177 -768 -174 0
-177 768 0
-177 174 0
178 -769 -7 0
-178 769 0
-178 7 0
179 -178 -770 0
-179 178 0
-179 770 0
180 -771 -177 0
-180 771 0
-180 177 0
181 -40 -736 0
-181 40 0
-181 736 0
182 -181 -31 0
-182 181 0
-182 31 0
183 -772 -180 0
-183 772 0
-183 180 0
184 -718 -709 0
-184 718 0
-184 709 0
185 -184 -746 0
-185 184 0
-185 746 0
186 -773 -183 0
-186 773 0
-186 183 0
187 -47 -709 0
-187 47 0
-187 709 0
188 -187 -16 0
-188 187 0
-188 16 0
189 -774 -186 0
-189 774 0
-189 186 0
190 -41 -709 0
-190 41 0
-190 709 0
191 -190 -5 0
-191 190 0
-191 5 0
192 -775 -189 0
-192 775 0
-192 189 0
193 -49 -17 0
-193 49 0
-193 17 0
194 -193 -732 0
-194 193 0
-194 732 0
195 -776 -192 0
-195 776 0
-195 192 0
196 -42 -704 0
-196 42 0
-196 704 0
197 -196 -777 0
-197 196 0
-197 777 0
198 -778 -195 0
-198 778 0
-198 195 0
199 -779 -2 0
-199 779 0
-199 2 0
200 -199 -729 0
-200 199 0
-200 729 0
201 -780 -198 0
-201 780 0
-201 198 0
202 -732 -25 0
-202 732 0
-202 25 0
203 -202 -7 0
-203 202 0
-203 7 0
204 -781 -201 0
-204 781 0
-204 201 0
205 -769 -2 0
-205 769 0
-205 2 0
206 -205 -27 0
-206 205 0
-206 27 0
207 -782 -204 0
-207 782 0
-207 204 0
208 -783 -25 0
-208 783 0
-208 25 0
209 -208 -28 0
-209 208 0
-209 28 0
210 -784 -207 0
-210 784 0
-210 207 0
211 -44 -20 0
-211 44 0
-211 20 0
212 -211 -39 0
-212 211 0
-212 39 0
213 -785 -210 0
-213 785 0
-213 210 0
214 -38 -23 0
-214 38 0
-214 23 0
215 -214 -726 0
-215 214 0
-215 726 0
216 -786 -213 0
-216 786 0
-216 213 0
217 -50 -18 0
-217 50 0
-217 18 0
218 -217 -39 0
-218 217 0
-218 39 0
219 -787 -216 0
-219 787 0
-219 216 0
220 -697 -4 0
-220 697 0
-220 4 0
221 -220 -11 0
-221 220 0
-221 11 0
222 -788 -219 0
-222 788 0
-222 219 0
223 -23 -13 0
-223 23 0
-223 13 0
224 -223 -789 0
-224 223 0
-224 789 0
225 -790 -222 0
-225 790 0
-225 222 0
226 -721 -15 0
-226 721 0
-226 15 0
227 -226 -39 0
-227 226 0
-227 39 0
228 -791 -225 0
-228 791 0
-228 225 0
229 -50 -14 0
-229 50 0
-229 14 0
230 -229 -739 0
-230 229 0
-230 739 0
231 -792 -228 0
-231 792 0
-231 228 0
232 -739 -701 0
-232 739 0
-232 701 0
233 -232 -37 0
-233 232 0
-233 37 0
234 -793 -231 0
-234 793 0
-234 231 0
235 -39 -794 0
-235 39 0
-235 794 0
236 -235 -31 0
-236 235 0
-236 31 0
237 -795 -234 0
-237 795 0
-237 234 0
238 -48 -721 0
-238 48 0
-238 721 0
239 -238 -713 0
-239 238 0
-239 713 0
240 -796 -237 0
-240 796 0
-240 237 0
241 -719 -1 0
-241 719 0
-241 1 0
242 -241 -797 0
-242 241 0
-242 797 0
243 -798 -240 0
-243 798 0
-243 240 0
244 -789 -704 0
-244 789 0
-244 704 0
245 -244 -24 0
-245 244 0
-245 24 0
246 -799 -243 0
-246 799 0
-246 243 0
247 -769 -15 0
-247 769 0
-247 15 0
248 -247 -14 0
-248 247 0
-248 14 0
249 -800 -246 0
-249 800 0
-249 246 0
250 -801 -698 0
-250 801 0
-250 698 0
251 -250 -752 0
-251 250 0
-251 752 0
252 -802 -249 0
-252 802 0
-252 249 0
253 -803 -732 0
-253 803 0
-253 732 0
254 -253 -26 0
-254 253 0
-254 26 0
255 -804 -252 0
-255 804 0
-255 252 0
256 -805 -18 0
-256 805 0
-256 18 0
257 -256 -726 0
-257 256 0
-257 726 0
258 -806 -255 0
-258 806 0
-258 255 0
259 -28 -19 0
-259 28 0
-259 19 0
260 -259 -7 0
-260 259 0
-260 7 0
261 -807 -258 0
-261 807 0
-261 258 0
262 -36 -12 0
-262 36 0
-262 12 0
263 -262 -26 0
-263 262 0
-263 26 0
264 -808 -261 0
-264 808 0
-264 261 0
265 -43 -3 0
-265 43 0
-265 3 0
266 -265 -752 0
-266 265 0
-266 752 0
267 -809 -264 0
-267 809 0
-267 264 0
268 -803 -25 0
-268 803 0
-268 25 0
269 -268 -752 0
-269 268 0
-269 752 0
270 -810 -267 0
-270 810 0
-270 267 0
271 -752 -762 0
-271 752 0
-271 762 0
272 -271 -33 0
-272 271 0
-272 33 0
273 -811 -270 0
-273 811 0
-273 270 0
274 -812 -12 0
-274 812 0
-274 12 0
275 -274 -35 0
-275 274 0
-275 35 0
276 -813 -273 0
-276 813 0
-276 273 0
277 -17 -4 0
-277 17 0
-277 4 0
278 -277 -37 0
-278 277 0
-278 37 0
279 -814 -276 0
-279 814 0
-279 276 0
280 -47 -725 0
-280 47 0
-280 725 0
281 -280 -48 0
-281 280 0
-281 48 0
282 -815 -279 0
-282 815 0
-282 279 0
283 -80 -8 0
-283 80 0
-283 8 0
284 -816 -282 0
-284 816 0
-284 282 0
285 -745 -19 0
-285 745 0
-285 19 0
286 -285 -35 0
-286 285 0
-286 35 0
287 -817 -284 0
-287 817 0
-287 284 0
288 -762 -17 0
-288 762 0
-288 17 0
289 -288 -26 0
-289 288 0
-289 26 0
290 -818 -287 0
-290 818 0
-290 287 0
291 -812 -699 0
-291 812 0
-291 699 0
292 -291 -734 0
-292 291 0
-292 734 0
293 -819 -290 0
-293 819 0
-293 290 0
294 -43 -741 0
-294 43 0
-294 741 0
295 -294 -803 0
-295 294 0
-295 803 0
296 -820 -293 0
-296 820 0
-296 293 0
297 -17 -701 0
-297 17 0
-297 701 0
298 -297 -699 0
-298 297 0
-298 699 0
299 -821 -296 0
-299 821 0
-299 296 0
300 -725 -2 0
-300 725 0
-300 2 0
301 -300 -710 0
-301 300 0
-301 710 0
302 -822 -299 0
-302 822 0
-302 299 0
303 -17 -1 0
-303 17 0
-303 1 0
304 -303 -47 0
-304 303 0
-304 47 0
305 -823 -302 0
-305 823 0
-305 302 0
306 -824 -718 0
-306 824 0
-306 718 0
307 -306 -11 0
-307 306 0
-307 11 0
308 -825 -305 0
-308 825 0
-308 305 0
309 -741 -762 0
-309 741 0
-309 762 0
310 -309 -734 0
-310 309 0
-310 734 0
311 -826 -308 0
-311 826 0
-311 308 0
312 -46 -20 0
-312 46 0
-312 20 0
313 -312 -716 0
-313 312 0
-313 716 0
314 -827 -311 0
-314 827 0
-314 311 0
315 -828 -725 0
-315 828 0
-315 725 0
316 -315 -25 0
-316 315 0
-316 25 0
317 -829 -314 0
-317 829 0
-317 314 0
318 -18 -719 0
-318 18 0
-318 719 0
319 -318 -16 0
-319 318 0
-319 16 0
320 -830 -317 0
-320 830 0
-320 317 0
321 -828 -13 0
-321 828 0
-321 13 0
322 -321 -752 0
-322 321 0
-322 752 0
323 -831 -320 0
-323 831 0
-323 320 0
324 -725 -693 0
-324 725 0
-324 693 0
325 -324 -9 0
-325 324 0
-325 9 0
326 -832 -323 0
-326 832 0
-326 323 0
327 -797 -23 0
-327 797 0
-327 23 0
328 -327 -721 0
-328 327 0
-328 721 0
329 -833 -326 0
-329 833 0
-329 326 0
330 -42 -732 0
-330 42 0
-330 732 0
331 -330 -752 0
-331 330 0
-331 752 0
332 -834 -329 0
-332 834 0
-332 329 0
333 -783 -741 0
-333 783 0
-333 741 0
334 -333 -705 0
-334 333 0
-334 705 0
335 -835 -332 0
-335 835 0
-335 332 0
336 -836 -20 0
-336 836 0
-336 20 0
337 -336 -45 0
-337 336 0
-337 45 0
338 -837 -335 0
-338 837 0
-338 335 0
339 -47 -42 0
-339 47 0
-339 42 0
340 -339 -803 0
-340 339 0
-340 803 0
341 -838 -338 0
-341 838 0
-341 338 0
342 -42 -794 0
-342 42 0
-342 794 0
343 -342 -48 0
-343 342 0
-343 48 0
344 -839 -341 0
-344 839 0
-344 341 0
345 -187 -797 0
-345 187 0
-345 797 0
346 -840 -344 0
-346 840 0
-346 344 0
347 -803 -32 0
-347 803 0
-347 32 0
348 -347 -732 0
-348 347 0
-348 732 0
349 -841 -346 0
-349 841 0
-349 346 0
350 -732 -23 0
-350 732 0
-350 23 0
351 -350 -8 0
-351 350 0
-351 8 0
352 -842 -349 0
-352 842 0
-352 349 0
353 -47 -30 0
-353 47 0
-353 30 0
354 -353 -721 0
-354 353 0
-354 721 0
355 -843 -352 0
-355 843 0
-355 352 0
356 -34 -718 0
-356 34 0
-356 718 0
357 -356 -697 0
-357 356 0
-357 697 0
358 -844 -355 0
-358 844 0
-358 355 0
359 -59 -705 0
-359 59 0
-359 705 0
360 -845 -358 0
-360 845 0
-360 358 0
361 -739 -11 0
-361 739 0
-361 11 0
362 -361 -37 0
-362 361 0
-362 37 0
363 -846 -360 0
-363 846 0
-363 360 0
364 -35 -746 0
-364 35 0
-364 746 0
365 -364 -40 0
-365 364 0
-365 40 0
366 -847 -363 0
-366 847 0
-366 363 0
367 -746 -14 0
-367 746 0
-367 14 0
368 -367 -836 0
-368 367 0
-368 836 0
369 -848 -366 0
-369 848 0
-369 366 0
370 -42 -789 0
-370 42 0
-370 789 0
371 -370 -26 0
-371 370 0
-371 26 0
372 -849 -369 0
-372 849 0
-372 369 0
373 -101 -783 0
-373 101 0
-373 783 0
374 -850 -372 0
-374 850 0
-374 372 0
375 -29 -725 0
-375 29 0
-375 725 0
376 -375 -37 0
-376 375 0
-376 37 0
377 -851 -374 0
-377 851 0
-377 374 0
378 -803 -26 0
-378 803 0
-378 26 0
379 -378 -734 0
-379 378 0
-379 734 0
380 -852 -377 0
-380 852 0
-380 377 0
381 -45 -12 0
-381 45 0
-381 12 0
382 -381 -729 0
-382 381 0
-382 729 0
383 -853 -380 0
-383 853 0
-383 380 0
384 -694 -1 0
-384 694 0
-384 1 0
385 -384 -47 0
-385 384 0
-385 47 0
386 -854 -383 0
-386 854 0
-386 383 0
387 -36 -17 0
-387 36 0
-387 17 0
388 -387 -710 0
-388 387 0
-388 710 0
389 -855 -386 0
-389 855 0
-389 386 0
390 -801 -35 0
-390 801 0
-390 35 0
391 -390 -726 0
-391 390 0
-391 726 0
392 -856 -389 0
-392 856 0
-392 389 0
393 -797 -716 0
-393 797 0
-393 716 0
394 -393 -770 0
-394 393 0
-394 770 0
395 -857 -392 0
-395 857 0
-395 392 0
396 -29 -794 0
-396 29 0
-396 794 0
397 -396 -39 0
-397 396 0
-397 39 0
398 -858 -395 0
-398 858 0
-398 395 0
399 -769 -3 0
-399 769 0
-399 3 0
400 -399 -8 0
-400 399 0
-400 8 0
401 -859 -398 0
-401 859 0
-401 398 0
402 -36 -21 0
-402 36 0
-402 21 0
403 -402 -11 0
-403 402 0
-403 11 0
404 -860 -401 0
-404 860 0
-404 401 0
405 -783 -14 0
-405 783 0
-405 14 0
406 -405 -21 0
-406 405 0
-406 21 0
407 -861 -404 0
-407 861 0
-407 404 0
408 -50 -694 0
-408 50 0
-408 694 0
409 -408 -35 0
-409 408 0
-409 35 0
410 -862 -407 0
-410 862 0
-410 407 0
411 -50 -13 0
-411 50 0
-411 13 0
412 -411 -746 0
-412 411 0
-412 746 0
413 -863 -410 0
-413 863 0
-413 410 0
414 -864 -694 0
-414 864 0
-414 694 0
415 -414 -28 0
-415 414 0
-415 28 0
416 -865 -413 0
-416 865 0
-416 413 0
417 -801 -721 0
-417 801 0
-417 721 0
418 -417 -31 0
-418 417 0
-418 31 0
419 -866 -416 0
-419 866 0
-419 416 0
420 -35 -701 0
-420 35 0
-420 701 0
421 -420 -22 0
-421 420 0
-421 22 0
422 -867 -419 0
-422 867 0
-422 419 0
423 -719 -8 0
-423 719 0
-423 8 0
424 -423 -31 0
-424 423 0
-424 31 0
425 -868 -422 0
-425 868 0
-425 422 0
426 -50 -41 0
-426 50 0
-426 41 0
427 -426 -812 0
-427 426 0
-427 812 0
428 -869 -425 0
-428 869 0
-428 425 0
429 -801 -718 0
-429 801 0
-429 718 0
430 -429 -37 0
-430 429 0
-430 37 0
431 -870 -428 0
-431 870 0
-431 428 0
432 -699 -5 0
-432 699 0
-432 5 0
433 -432 -31 0
-433 432 0
-433 31 0
434 -871 -431 0
-434 871 0
-434 431 0
435 -783 -23 0
-435 783 0
-435 23 0
436 -435 -45 0
-436 435 0
-436 45 0
437 -872 -434 0
-437 872 0
-437 434 0
438 -30 -25 0
-438 30 0
-438 25 0
439 -438 -770 0
-439 438 0
-439 770 0
440 -873 -437 0
-440 873 0
-440 437 0
441 -36 -15 0
-441 36 0
-441 15 0
442 -441 -22 0
-442 441 0
-442 22 0
443 -874 -440 0
-443 874 0
-443 440 0
444 -864 -10 0
-444 864 0
-444 10 0
445 -444 -699 0
-445 444 0
-445 699 0
446 -875 -443 0
-446 875 0
-446 443 0
447 -783 -713 0
-447 783 0
-447 713 0
448 -447 -734 0
-448 447 0
-448 734 0
449 -876 -446 0
-449 876 0
-449 446 0
450 -836 -4 0
-450 836 0
-450 4 0
451 -450 -33 0
-451 450 0
-451 33 0
452 -877 -449 0
-452 877 0
-452 449 0
453 -769 -29 0
-453 769 0
-453 29 0
454 -453 -26 0
-454 453 0
-454 26 0
455 -878 -452 0
-455 878 0
-455 452 0
456 -812 -701 0
-456 812 0
-456 701 0
457 -456 -721 0
-457 456 0
-457 721 0
458 -879 -455 0
-458 879 0
-458 455 0
459 -42 -824 0
-459 42 0
-459 824 0
460 -459 -697 0
-460 459 0
-460 697 0
461 -880 -458 0
-461 880 0
-461 458 0
462 -762 -698 0
-462 762 0
-462 698 0
463 -462 -705 0
-463 462 0
-463 705 0
464 -881 -461 0
-464 881 0
-464 461 0
465 -47 -864 0
-465 47 0
-465 864 0
466 -465 -709 0
-466 465 0
-466 709 0
467 -882 -464 0
-467 882 0
-467 464 0
468 -29 -705 0
-468 29 0
-468 705 0
469 -468 -26 0
-469 468 0
-469 26 0
470 -883 -467 0
-470 883 0
-470 467 0
471 -42 -884 0
-471 42 0
-471 884 0
472 -471 -705 0
-472 471 0
-472 705 0
473 -885 -470 0
-473 885 0
-473 470 0
474 -712 -789 0
-474 712 0
-474 789 0
475 -474 -16 0
-475 474 0
-475 16 0
476 -886 -473 0
-476 886 0
-476 473 0
477 -741 -694 0
-477 741 0
-477 694 0
478 -477 -47 0
-478 477 0
-478 47 0
479 -887 -476 0
-479 887 0
-479 476 0
480 -48 -42 0
-480 48 0
-480 42 0
481 -480 -37 0
-481 480 0
-481 37 0
482 -888 -479 0
-482 888 0
-482 479 0
483 -709 -725 0
-483 709 0
-483 725 0
484 -483 -25 0
-484 483 0
-484 25 0
485 -889 -482 0
-485 889 0
-485 482 0
486 -794 -704 0
-486 794 0
-486 704 0
487 -486 -705 0
-487 486 0
-487 705 0
488 -890 -485 0
-488 890 0
-488 485 0
489 -31 -723 0
-489 31 0
-489 723 0
490 -489 -752 0
-490 489 0
-490 752 0
491 -891 -488 0
-491 891 0
-491 488 0
492 -48 -36 0
-492 48 0
-492 36 0
493 -492 -27 0
-493 492 0
-493 27 0
494 -892 -491 0
-494 892 0
-494 491 0
495 -50 -704 0
-495 50 0
-495 704 0
496 -495 -794 0
-496 495 0
-496 794 0
497 -893 -494 0
-497 893 0
-497 494 0
498 -759 -9 0
-498 759 0
-498 9 0
499 -498 -721 0
-499 498 0
-499 721 0
500 -894 -497 0
-500 894 0
-500 497 0
501 -19 -779 0
-501 19 0
-501 779 0
502 -501 -803 0
-502 501 0
-502 803 0
503 -895 -500 0
-503 895 0
-503 500 0
504 -836 -17 0
-504 836 0
-504 17 0
505 -504 -35 0
-505 504 0
-505 35 0
506 -896 -503 0
-506 896 0
-506 503 0
507 -49 -46 0
-507 49 0
-507 46 0
508 -507 -726 0
-508 507 0
-508 726 0
509 -897 -506 0
-509 897 0
-509 506 0
510 -26 -23 0
-510 26 0
-510 23 0
511 -510 -697 0
-511 510 0
-511 697 0
512 -898 -509 0
-512 898 0
-512 509 0
513 -36 -29 0
-513 36 0
-513 29 0
514 -513 -710 0
-514 513 0
-514 710 0
515 -899 -512 0
-515 899 0
-515 512 0
516 -29 -19 0
-516 29 0
-516 19 0
517 -516 -32 0
-517 516 0
-517 32 0
518 -900 -515 0
-518 900 0
-518 515 0
519 -749 -701 0
-519 749 0
-519 701 0
520 -519 -37 0
-520 519 0
-520 37 0
521 -901 -518 0
-521 901 0
-521 518 0
522 -828 -884 0
-522 828 0
-522 884 0
523 -522 -39 0
-523 522 0
-523 39 0
524 -902 -521 0
-524 902 0
-524 521 0
525 -709 -2 0
-525 709 0
-525 2 0
526 -525 -789 0
-526 525 0
-526 789 0
527 -903 -524 0
-527 903 0
-527 524 0
528 -46 -1 0
-528 46 0
-528 1 0
529 -528 -21 0
-529 528 0
-529 21 0
530 -904 -527 0
-530 904 0
-530 527 0
531 -736 -22 0
-531 736 0
-531 22 0
532 -531 -33 0
-532 531 0
-532 33 0
533 -905 -530 0
-533 905 0
-533 530 0
534 -762 -10 0
-534 762 0
-534 10 0
535 -534 -726 0
-535 534 0
-535 726 0
536 -906 -533 0
-536 906 0
-536 533 0
537 -28 -704 0
-537 28 0
-537 704 0
538 -537 -705 0
-538 537 0
-538 705 0
539 -907 -536 0
-539 907 0
-539 536 0
540 -339 -35 0
-540 339 0
-540 35 0
541 -908 -539 0
-541 908 0
-541 539 0
542 -22 -705 0
-542 22 0
-542 705 0
543 -542 -699 0
-543 542 0
-543 699 0
544 -909 -541 0
-544 909 0
-544 541 0
545 -762 -1 0
-545 762 0
-545 1 0
546 -545 -713 0
-546 545 0
-546 713 0
547 -910 -544 0
-547 910 0
-547 544 0
548 -16 -1 0
-548 16 0
-548 1 0
549 -548 -24 0
-549 548 0
-549 24 0
550 -911 -547 0
-550 911 0
-550 547 0
551 -745 -37 0
-551 745 0
-551 37 0
552 -551 -33 0
-552 551 0
-552 33 0
553 -912 -550 0
-553 912 0
-553 550 0
554 -32 -794 0
-554 32 0
-554 794 0
555 -554 -777 0
-555 554 0
-555 777 0
556 -913 -553 0
-556 913 0
-556 553 0
557 -36 -25 0
-557 36 0
-557 25 0
558 -557 -11 0
-558 557 0
-558 11 0
559 -914 -556 0
-559 914 0
-559 556 0
560 -38 -725 0
-560 38 0
-560 725 0
561 -560 -701 0
-561 560 0
-561 701 0
562 -915 -559 0
-562 915 0
-562 559 0
563 -22 -15 0
-563 22 0
-563 15 0
564 -563 -45 0
-564 563 0
-564 45 0
565 -916 -562 0
-565 916 0
-565 562 0
566 -43 -749 0
-566 43 0
-566 749 0
567 -566 -24 0
-567 566 0
-567 24 0
568 -917 -565 0
-568 917 0
-568 565 0
569 -745 -18 0
-569 745 0
-569 18 0
570 -569 -752 0
-570 569 0
-570 752 0
571 -918 -568 0
-571 918 0
-571 568 0
572 -745 -16 0
-572 745 0
-572 16 0
573 -572 -779 0
-573 572 0
-573 779 0
574 -919 -571 0
-574 919 0
-574 571 0
575 -50 -27 0
-575 50 0
-575 27 0
576 -575 -752 0
-576 575 0
-576 752 0
577 -920 -574 0
-577 920 0
-577 574 0
578 -49 -777 0
-578 49 0
-578 777 0
579 -578 -805 0
-579 578 0
-579 805 0
580 -921 -577 0
-580 921 0
-580 577 0
581 -716 -22 0
-581 716 0
-581 22 0
582 -581 -26 0
-582 581 0
-582 26 0
583 -922 -580 0
-583 922 0
-583 580 0
584 -805 -15 0
-584 805 0
-584 15 0
585 -584 -752 0
-585 584 0
-585 752 0
586 -923 -583 0
-586 923 0
-586 583 0
587 -705 -701 0
-587 705 0
-587 701 0
588 -587 -33 0
-588 587 0
-588 33 0
589 -924 -586 0
-589 924 0
-589 586 0
590 -48 -28 0
-590 48 0
-590 28 0
591 -590 -726 0
-591 590 0
-591 726 0
592 -925 -589 0
-592 925 0
-592 589 0
593 -12 -2 0
-593 12 0
-593 2 0
594 -593 -9 0
-594 593 0
-594 9 0
595 -926 -592 0
-595 926 0
-595 592 0
596 -762 -794 0
-596 762 0
-596 794 0
597 -596 -28 0
-597 596 0
-597 28 0
598 -927 -595 0
-598 927 0
-598 595 0
599 -48 -723 0
-599 48 0
-599 723 0
600 -599 -812 0
-600 599 0
-600 812 0
601 -928 -598 0
-601 928 0
-601 598 0
602 -828 -3 0
-602 828 0
-602 3 0
603 -602 -797 0
-603 602 0
-603 797 0
604 -929 -601 0
-604 929 0
-604 601 0
605 -26 -701 0
-605 26 0
-605 701 0
606 -605 -770 0
-606 605 0
-606 770 0
607 -930 -604 0
-607 930 0
-607 604 0
608 -716 -789 0
-608 716 0
-608 789 0
609 -608 -726 0
-609 608 0
-609 726 0
610 -931 -607 0
-610 931 0
-610 607 0
611 -24 -10 0
-611 24 0
-611 10 0
612 -611 -699 0
-612 611 0
-612 699 0
613 -932 -610 0
-613 932 0
-613 610 0
614 -34 -23 0
-614 34 0
-614 23 0
615 -614 -710 0
-615 614 0
-615 710 0
616 -933 -613 0
-616 933 0
-616 613 0
617 -766 -693 0
-617 766 0
-617 693 0
618 -617 -27 0
-618 617 0
-618 27 0
619 -934 -616 0
-619 934 0
-619 616 0
620 -20 -3 0
-620 20 0
-620 3 0
621 -620 -805 0
-621 620 0
-621 805 0
622 -935 -619 0
-622 935 0
-622 619 0
623 -44 -27 0
-623 44 0
-623 27 0
624 -623 -40 0
-624 623 0
-624 40 0
625 -936 -622 0
-625 936 0
-625 622 0
626 -789 -2 0
-626 789 0
-626 2 0
627 -626 -732 0
-627 626 0
-627 732 0
628 -937 -625 0
-628 937 0
-628 625 0
629 -47 -29 0
-629 47 0
-629 29 0
630 -629 -39 0
-630 629 0
-630 39 0
631 -938 -628 0
-631 938 0
-631 628 0
632 -89 -812 0
-632 89 0
-632 812 0
633 -939 -631 0
-633 939 0
-633 631 0
634 -745 -716 0
-634 745 0
-634 716 0
635 -634 -732 0
-635 634 0
-635 732 0
636 -940 -633 0
-636 940 0
-636 633 0
637 -759 -23 0
-637 759 0
-637 23 0
638 -637 -710 0
-638 637 0
-638 710 0
639 -941 -636 0
-639 941 0
-639 636 0
640 -797 -701 0
-640 797 0
-640 701 0
641 -640 -26 0
-641 640 0
-641 26 0
642 -942 -639 0
-642 942 0
-642 639 0
643 -769 -12 0
-643 769 0
-643 12 0
644 -643 -699 0
-644 643 0
-644 699 0
645 -943 -642 0
-645 943 0
-645 642 0
646 -414 -22 0
-646 414 0
-646 22 0
647 -944 -645 0
-647 944 0
-647 645 0
648 -789 -3 0
-648 789 0
-648 3 0
649 -648 -734 0
-649 648 0
-649 734 0
650 -945 -647 0
-650 945 0
-650 647 0
651 -803 -39 0
-651 803 0
-651 39 0
652 -651 -8 0
-652 651 0
-652 8 0
653 -946 -650 0
-653 946 0
-653 650 0
654 -48 -746 0
-654 48 0
-654 746 0
655 -654 -705 0
-655 654 0
-655 705 0
656 -947 -653 0
-656 947 0
-656 653 0
657 -43 -719 0
-657 43 0
-657 719 0
658 -657 -721 0
-658 657 0
-658 721 0
659 -948 -656 0
-659 948 0
-659 656 0
660 -36 -707 0
-660 36 0
-660 707 0
661 -660 -779 0
-661 660 0
-661 779 0
662 -949 -659 0
-662 949 0
-662 659 0
663 -769 -698 0
-663 769 0
-663 698 0
664 -663 -797 0
-664 663 0
-664 797 0
665 -950 -662 0
-665 950 0
-665 662 0
666 -21 -6 0
-666 21 0
-666 6 0
667 -666 -836 0
-667 666 0
-667 836 0
668 -951 -665 0
-668 951 0
-668 665 0
669 -15 -693 0
-669 15 0
-669 693 0
670 -669 -752 0
-670 669 0
-670 752 0
671 -952 -668 0
-671 952 0
-671 668 0
672 -739 -884 0
-672 739 0
-672 884 0
673 -672 -7 0
-673 672 0
-673 7 0
674 -953 -671 0
-674 953 0
-674 671 0
675 -746 -749 0
-675 746 0
-675 749 0
676 -675 -732 0
-676 675 0
-676 732 0
677 -954 -674 0
-677 954 0
-677 674 0
678 -801 -25 0
-678 801 0
-678 25 0
679 -678 -726 0
-679 678 0
-679 726 0
680 -955 -677 0
-680 955 0
-680 677 0
681 -723 -13 0
-681 723 0
-681 13 0
682 -681 -732 0
-682 681 0
-682 732 0
683 -956 -680 0
-683 956 0
-683 680 0
684 -707 -1 0
-684 707 0
-684 1 0
685 -684 -704 0
-685 684 0
-685 704 0
686 -957 -683 0
-686 957 0
-686 683 0
687 -698 -2 0
-687 698 0
-687 2 0
688 -687 -3 0
-688 687 0
-688 3 0
689 -958 -686 0
-689 958 0
-689 686 0
690 -705 -704 0
-690 705 0
-690 704 0
691 -690 -729 0
-691 690 0
-691 729 0
692 -959 -689 0
-692 959 0
-692 689 0
-693 -1 0
693 1 0
-694 -2 0
694 2 0
-695 -54 0
695 54 0
-696 -52 0
696 52 0
-697 -7 0
697 7 0
-698 -6 0
698 6 0
-699 -8 0
699 8 0
-700 -57 0
700 57 0
-701 -10 0
701 10 0
-702 -60 0
702 60 0
-703 -63 0
703 63 0
-704 -12 0
704 12 0
-705 -16 0
705 16 0
-706 -66 0
706 66 0
-707 -18 0
707 18 0
-708 -69 0
708 69 0
-709 -20 0
709 20 0
-710 -22 0
710 22 0
-711 -72 0
711 72 0
-712 -23 0
712 23 0
-713 -24 0
713 24 0
-714 -75 0
714 75 0
-715 -78 0
715 78 0
-716 -25 0
716 25 0
-717 -81 0
717 81 0
-718 -29 0
718 29 0
-719 -9 0
719 9 0
-720 -84 0
720 84 0
-721 -21 0
721 21 0
-722 -87 0
722 87 0
-723 -30 0
723 30 0
-724 -90 0
724 90 0
-725 -4 0
725 4 0
-726 -31 0
726 31 0
-727 -93 0
727 93 0
-728 -96 0
728 96 0
-729 -33 0
729 33 0
-730 -99 0
730 99 0
-731 -102 0
731 102 0
-732 -35 0
732 35 0
-733 -105 0
733 105 0
-734 -37 0
734 37 0
-735 -108 0
735 108 0
-736 -38 0
736 38 0
-737 -111 0
737 111 0
-738 -114 0
738 114 0
-739 -40 0
739 40 0
-740 -117 0
740 117 0
-741 -41 0
741 41 0
-742 -120 0
742 120 0
-743 -123 0
743 123 0
-744 -126 0
744 126 0
-745 -43 0
745 43 0
-746 -28 0
746 28 0
-747 -129 0
747 129 0
-748 -132 0
748 132 0
-749 -19 0
749 19 0
-750 -135 0
750 135 0
-751 -138 0
751 138 0
-752 -45 0
752 45 0
-753 -141 0
753 141 0
-754 -144 0
754 144 0
-755 -147 0
755 147 0
-756 -150 0
756 150 0
-757 -153 0
757 153 0
-758 -156 0
758 156 0
-759 -46 0
759 46 0
-760 -159 0
760 159 0
-761 -162 0
761 162 0
-762 -34 0
762 34 0
-763 -165 0
763 165 0
-764 -168 0
764 168 0
-765 -170 0
765 170 0
-766 -15 0
766 15 0
-767 -173 0
767 173 0
-768 -176 0
768 176 0
-769 -47 0
769 47 0
-770 -11 0
770 11 0
-771 -179 0
771 179 0
-772 -182 0
772 182 0
-773 -185 0
773 185 0
-774 -188 0
774 188 0
-775 -191 0
775 191 0
-776 -194 0
776 194 0
-777 -39 0
777 39 0
-778 -197 0
778 197 0
-779 -5 0
779 5 0
-780 -200 0
780 200 0
-781 -203 0
781 203 0
-782 -206 0
782 206 0
-783 -48 0
783 48 0
-784 -209 0
784 209 0
-785 -212 0
785 212 0
-786 -215 0
786 215 0
-787 -218 0
787 218 0
-788 -221 0
788 221 0
-789 -14 0
789 14 0
-790 -224 0
790 224 0
-791 -227 0
791 227 0
-792 -230 0
792 230 0
-793 -233 0
793 233 0
-794 -13 0
794 13 0
-795 -236 0
795 236 0
-796 -239 0
796 239 0
-797 -42 0
797 42 0
-798 -242 0
798 242 0
-799 -245 0
799 245 0
-800 -248 0
800 248 0
-801 -50 0
801 50 0
-802 -251 0
802 251 0
-803 -49 0
803 49 0
-804 -254 0
804 254 0
-805 -26 0
805 26 0
-806 -257 0
806 257 0
-807 -260 0
807 260 0
-808 -263 0
808 263 0
-809 -266 0
809 266 0
-810 -269 0
810 269 0
-811 -272 0
811 272 0
-812 -27 0
812 27 0
-813 -275 0
813 275 0
-814 -278 0
814 278 0
-815 -281 0
815 281 0
-816 -283 0
816 283 0
-817 -286 0
817 286 0
-818 -289 0
818 289 0
-819 -292 0
819 292 0
-820 -295 0
820 295 0
-821 -298 0
821 298 0
-822 -301 0
822 301 0
-823 -304 0
823 304 0
-824 -36 0
824 36 0
-825 -307 0
825 307 0
-826 -310 0
826 310 0
-827 -313 0
827 313 0
-828 -44 0
828 44 0
-829 -316 0
829 316 0
-830 -319 0
830 319 0
-831 -322 0
831 322 0
-832 -325 0
832 325 0
-833 -328 0
833 328 0
-834 -331 0
834 331 0
-835 -334 0
835 334 0
-836 -32 0
836 32 0
-837 -337 0
837 337 0
-838 -340 0
838 340 0
-839 -343 0
839 343 0
-840 -345 0
840 345 0
-841 -348 0
841 348 0
-842 -351 0
842 351 0
-843 -354 0
843 354 0
-844 -357 0
844 357 0
-845 -359 0
845 359 0
-846 -362 0
846 362 0
-847 -365 0
847 365 0
-848 -368 0
848 368 0
-849 -371 0
849 371 0
-850 -373 0
850 373 0
-851 -376 0
851 376 0
-852 -379 0
852 379 0
-853 -382 0
853 382 0
-854 -385 0
854 385 0
-855 -388 0
855 388 0
-856 -391 0
856 391 0
-857 -394 0
857 394 0
-858 -397 0
858 397 0
-859 -400 0
859 400 0
-860 -403 0
860 403 0
-861 -406 0
861 406 0
-862 -409 0
862 409 0
-863 -412 0
863 412 0
-864 -17 0
864 17 0
-865 -415 0
865 415 0
-866 -418 0
866 418 0
-867 -421 0
867 421 0
-868 -424 0
868 424 0
-869 -427 0
869 427 0
-870 -430 0
870 430 0
-871 -433 0
871 433 0
-872 -436 0
872 436 0
-873 -439 0
873 439 0
-874 -442 0
874 442 0
-875 -445 0
875 445 0
-876 -448 0
876 448 0
-877 -451 0
877 451 0
-878 -454 0
878 454 0
-879 -457 0
879 457 0
-880 -460 0
880 460 0
-881 -463 0
881 463 0
-882 -466 0
882 466 0
-883 -469 0
883 469 0
-884 -3 0
884 3 0
-885 -472 0
885 472 0
-886 -475 0
886 475 0
-887 -478 0
887 478 0
-888 -481 0
888 481 0
-889 -484 0
889 484 0
-890 -487 0
890 487 0
-891 -490 0
891 490 0
-892 -493 0
892 493 0
-893 -496 0
893 496 0
-894 -499 0
894 499 0
-895 -502 0
895 502 0
-896 -505 0
896 505 0
-897 -508 0
897 508 0
-898 -511 0
898 511 0
-899 -514 0
899 514 0
-900 -517 0
900 517 0
-901 -520 0
901 520 0
-902 -523 0
902 523 0
-903 -526 0
903 526 0
-904 -529 0
904 529 0
-905 -532 0
905 532 0
-906 -535 0
906 535 0
-907 -538 0
907 538 0
-908 -540 0
908 540 0
-909 -543 0
909 543 0
-910 -546 0
910 546 0
-911 -549 0
911 549 0
-912 -552 0
912 552 0
-913 -555 0
913 555 0
-914 -558 0
914 558 0
-915 -561 0
915 561 0
-916 -564 0
916 564 0
-917 -567 0
917 567 0
-918 -570 0
918 570 0
-919 -573 0
919 573 0
-920 -576 0
920 576 0
-921 -579 0
921 579 0
-922 -582 0
922 582 0
-923 -585 0
923 585 0
-924 -588 0
924 588 0
-925 -591 0
925 591 0
-926 -594 0
926 594 0
-927 -597 0
927 597 0
-928 -600 0
928 600 0
-929 -603 0
929 603 0
-930 -606 0
930 606 0
-931 -609 0
931 609 0
-932 -612 0
932 612 0
-933 -615 0
933 615 0
-934 -618 0
934 618 0
-935 -621 0
935 621 0
-936 -624 0
936 624 0
-937 -627 0
937 627 0
-938 -630 0
938 630 0
-939 -632 0
939 632 0
-940 -635 0
940 635 0
-941 -638 0
941 638 0
-942 -641 0
942 641 0
-943 -644 0
943 644 0
-944 -646 0
944 646 0
-945 -649 0
945 649 0
-946 -652 0
946 652 0
-947 -655 0
947 655 0
-948 -658 0
948 658 0
-949 -661 0
949 661 0
-950 -664 0
950 664 0
-951 -667 0
951 667 0
-952 -670 0
952 670 0
-953 -673 0
953 673 0
-954 -676 0
954 676 0
-955 -679 0
955 679 0
-956 -682 0
956 682 0
-957 -685 0
957 685 0
-958 -688 0
958 688 0
-959 -691 0
959 691 0
692 0
